(set-info :Origin "This instance was generated by: BanditFuzz-- an RL fuzzer for SMT solvers" )
(set-info :Author "Joe Scott, Fed Mora, Vijay Ganesh" )
(set-info :Contact "Joe Scott, joseph.scott@uwaterloo.ca")
(set-logic QF_BV)
(declare-const bool_0 Bool)
(declare-const bool_1 Bool)
(declare-const bool_2 Bool)
(declare-const bool_3 Bool)
(declare-const bool_4 Bool)
(declare-const bv_0 (_ BitVec 32))
(declare-const bv_1 (_ BitVec 32))
(declare-const bv_2 (_ BitVec 32))
(declare-const bv_3 (_ BitVec 32))
(declare-const bv_4 (_ BitVec 32))
(assert (bvsgt (bvudiv (bvxor bv_0 #x3771030d ) (bvurem bv_3 #x1b694ada )) (bvurem (bvxnor bv_1 #x31b8e058 ) (bvxor bv_3 bv_1))))
(assert (=> (or (bvule #xab7cab4a  bv_3) (=> bool_1 bool_0)) (bvsgt (bvurem #x223c558c  #xd37fc958 ) (bvudiv #xb0963901  #x5a756b78 ))))
(assert (bvsge (bvxnor (bvurem bv_4 #xf3fa5988 ) (bvsrem bv_4 #xc949eb32 )) (bvor (bvsrem bv_1 bv_1) (bvsrem #x868ddbeb  bv_4))))
(assert (bvuge (bvsmod (bvlshr #xdc0d2ca8  bv_0) (bvashr bv_3 #x38f5301d )) (bvurem (bvsub bv_0 #xaaa446c1 ) (bvurem bv_3 bv_1))))
(assert (bvsle (bvxnor (bvadd bv_2 #x4463300e ) (bvmul bv_3 bv_3)) (bvlshr (bvshl #x4d661606  bv_1) (bvnor bv_2 #x3a1fa00c ))))
(check-sat)
(exit)
